30
2
20029
599 73
false
0.25
20 3 9 8 19 32 45 12 9 29 5 30 21 1 19 40 22 44 1 27 32 37 2 14 25 27 24 9 38 42
32 22 7 20 50 29 18 28 35 46 6 26 11 15 19 50 13 20 12 23 23 15 13 5 14 7 17 32 28 47
65 81 65 36 81 60 46 80 76 86 10 23 83 7 30 31 16 33 5 49 26 11 99 96 70 40 76 18 62 73
0 0 0 0 0 0 0 0 24 0 0 0 0 0 0 0 0 0 0 24 36 0 0 0 11 95 0 0 56 0
0 60 0 89 39 0 11 0 88 0 0 0 0 63 91 0 0 0 82 0 0 18 0 10 0 0 0 0 0
0 0 0 0 62 0 0 0 0 76 0 14 34 0 0 0 0 66 0 0 0 19 0 0 0 3 0 0
0 24 0 46 0 0 0 15 0 0 0 0 0 0 85 0 0 0 24 0 82 0 0 0 0 0 0
0 0 0 91 90 0 0 0 0 0 33 0 0 53 93 3 0 0 43 0 0 0 0 0 75 0
0 0 0 0 0 0 0 0 0 94 0 47 0 0 0 48 0 83 0 71 77 91 0 0 0
0 42 0 44 0 0 0 0 49 43 0 21 0 60 69 0 0 0 0 0 0 97 0 0
0 0 48 0 19 0 0 0 0 0 0 0 12 0 0 0 0 0 0 9 0 0 0
0 0 0 0 0 0 91 0 89 15 18 16 0 23 0 0 0 0 0 59 0 89
0 50 0 8 0 0 0 0 75 0 0 0 0 0 23 0 10 0 0 0 72
0 0 0 24 87 43 4 0 0 0 0 0 43 3 98 0 0 0 0 0
0 0 0 0 0 53 0 0 0 0 0 0 0 0 0 21 0 0 0
0 0 74 70 35 0 0 0 0 46 0 0 0 0 0 0 0 0
0 0 0 0 84 0 0 0 0 0 0 86 0 0 60 0 0
0 0 0 0 0 0 0 0 0 0 0 0 0 0 0 0
0 41 0 0 79 1 0 0 0 0 0 0 11 0 0
0 0 0 83 0 0 0 0 0 0 0 0 0 67
0 0 0 11 0 0 0 0 94 99 0 0 0
0 0 0 0 0 0 87 0 0 0 0 0
0 0 36 0 0 0 0 36 0 0 100
0 36 0 0 89 0 0 0 0 72
0 76 0 0 0 92 0 9 0
0 0 0 0 0 0 0 20
0 0 0 35 0 0 0
0 0 26 61 0 0
0 63 0 18 0
0 0 0 0
0 0 0
0 0
0 0 23 91 57 0 0 0 0 0 28 26 0 0 77 0 0 4 0 56 0 0 0 0 0 50 0 0 60
0 0 0 67 0 67 50 51 0 0 61 0 0 0 0 8 91 0 24 69 0 0 15 0 75 0 39 0
0 0 0 0 0 0 0 0 0 0 0 0 0 0 0 79 0 0 0 52 0 0 0 0 0 64 83
0 0 0 0 22 0 0 0 0 10 0 0 0 0 63 72 0 35 0 0 0 0 0 0 42 100
0 0 0 0 0 0 0 0 0 0 67 0 0 0 0 0 0 0 13 0 0 0 0 0 0
0 0 5 0 0 0 0 56 30 0 0 0 0 0 0 74 57 0 0 0 0 0 0 0
0 0 0 0 0 0 0 0 0 0 0 22 57 0 70 0 0 0 0 0 0 0 0
0 0 0 46 0 0 0 74 0 0 26 6 0 0 26 42 0 77 0 0 0 0
0 0 0 60 97 0 0 0 0 40 0 0 0 0 0 78 12 81 0 99 0
0 0 0 0 0 43 0 0 11 0 0 24 0 86 70 0 0 0 0 0
0 88 0 0 0 0 54 0 0 0 0 0 0 44 0 0 0 0 86
0 0 0 92 0 0 0 0 84 55 0 0 14 0 0 49 0 0
0 0 8 0 0 0 0 0 3 0 0 0 0 0 0 0 0
0 22 32 0 0 0 33 56 87 0 0 0 0 10 64 0
0 0 62 0 0 0 0 0 0 0 100 0 0 58 0
0 0 47 0 0 0 0 46 0 0 0 20 0 0
0 0 0 0 28 0 0 0 0 56 63 0 0
0 0 0 0 5 0 0 0 0 0 0 4
0 0 0 0 0 0 52 0 0 77 34
0 93 0 18 0 0 0 0 0 0
0 0 36 0 0 0 0 0 0
0 46 0 0 0 0 0 0
0 0 0 0 17 29 79
0 28 0 0 73 0
0 99 0 93 0
0 0 0 0
0 0 64
0 0
0
0 0 0 0 0 0 0 97 0 0 0 0 0 0 0 0 0 92 0 0 33 0 0 76 0 87 0 0
0 72 24 0 0 0 21 0 0 0 0 53 55 0 13 0 0 0 0 0 0 0 0 0 0 0 0
0 52 0 0 89 0 0 15 0 87 0 0 0 0 0 0 0 56 0 0 15 0 0 0 36 67
0 0 0 0 0 0 0 0 75 0 0 0 0 0 5 4 0 0 68 0 0 57 0 0 0
0 76 0 0 0 0 0 20 0 0 0 0 76 0 0 11 0 0 0 0 0 0 0 0
0 80 0 0 81 0 0 0 0 0 84 0 0 0 0 0 0 56 25 39 0 65 0
0 0 0 0 0 0 0 0 0 0 0 0 22 10 0 0 0 0 2 0 0 67
0 15 0 0 0 0 0 0 0 0 0 0 0 0 0 86 0 0 0 7 0
0 0 0 71 0 0 53 0 0 0 0 19 75 0 37 0 0 84 0 0
0 0 94 58 0 73 35 0 0 0 37 18 0 55 71 40 49 0 0
0 0 9 0 0 0 0 36 0 0 0 75 0 67 0 0 0 0
0 0 0 19 34 61 0 0 0 0 0 0 0 0 0 0 0
0 0 0 69 0 0 91 0 0 0 97 0 0 64 0 0
0 44 0 0 0 72 0 0 0 0 0 0 0 80 0
0 0 0 72 0 0 3 4 0 69 0 0 0 98
0 0 0 0 0 0 0 0 0 58 81 0 0
0 0 0 0 0 0 0 74 0 0 0 26
0 0 0 0 0 38 0 0 95 0 0
0 0 98 0 0 0 0 0 14 0
0 12 0 38 0 0 0 0 0
0 0 0 0 38 0 0 0
0 0 0 0 0 12 11
0 0 73 0 40 69
0 0 0 0 2
0 0 0 0
0 0 0
0 17
0
0 0 0 0 71 16 0 0 22 0 98 0 0 0 0 0 0 0 30 0 18 0 54 0 0 0 0
0 0 0 0 0 0 0 0 0 38 87 0 0 26 0 20 83 77 0 0 0 63 0 0 76 89
0 57 0 0 0 0 0 37 0 0 0 0 0 0 11 0 0 0 0 84 94 0 10 0 24
0 19 64 0 0 0 0 0 0 0 0 0 43 0 32 1 0 0 0 0 0 0 0 13
0 0 0 32 0 0 37 55 0 0 0 0 0 0 0 56 4 0 0 0 0 0 0
0 0 0 0 0 36 0 0 75 0 0 0 0 0 0 4 0 0 0 0 0 0
0 0 0 0 0 0 38 0 0 0 0 0 64 0 0 0 0 0 0 0 0
0 0 40 43 0 92 42 20 0 53 0 0 0 0 82 0 22 0 0 0
0 0 15 0 0 0 0 22 85 0 0 0 89 0 5 94 74 0 50
0 0 70 0 0 0 0 0 0 0 86 0 0 0 0 0 0 100
0 0 0 0 0 0 0 54 0 78 0 0 0 0 94 42 0
0 0 0 0 0 24 0 1 31 0 0 0 0 0 0 0
0 0 0 47 0 0 97 12 0 0 90 0 0 0 0
0 0 0 0 0 0 0 100 0 33 0 79 0 0
0 0 0 0 27 0 0 0 29 90 0 0 0
0 0 0 0 0 0 0 5 0 0 0 0
0 25 0 25 0 0 32 0 93 0 0
0 0 0 0 4 0 0 55 56 0
0 53 0 0 0 0 0 0 0
0 98 55 0 0 0 41 0
0 51 0 91 0 0 81
0 0 31 64 0 0
0 79 0 0 42
0 0 0 0
0 25 0
0 0
0
0 0 64 0 0 0 0 0 0 69 0 0 0 0 0 7 99 0 25 0 98 0 0 0 0 2
0 0 0 0 0 56 51 73 0 33 0 0 0 0 45 0 0 0 37 0 0 0 0 0 0
0 70 0 0 0 75 0 0 0 0 0 0 0 0 0 0 19 0 89 92 0 0 0 52
0 0 0 70 31 0 54 0 0 0 0 0 0 73 0 0 0 54 0 96 0 0 0
0 84 0 0 0 90 0 0 0 0 0 0 36 0 0 0 0 0 0 0 0 60
0 0 0 0 0 0 63 0 0 0 0 25 0 0 0 0 0 0 0 0 84
0 0 0 71 0 0 36 48 0 0 51 0 0 0 18 0 88 0 0 0
0 0 0 100 70 93 0 0 0 0 0 0 0 100 0 0 0 73 0
0 0 0 0 0 0 0 2 43 0 0 0 0 0 0 1 0 0
0 0 0 0 0 0 0 0 72 29 0 80 0 0 0 22 0
0 0 0 0 0 0 0 0 0 0 0 0 8 0 0 0
0 0 0 0 0 51 38 0 89 13 48 57 0 0 0
0 0 0 0 0 0 26 0 0 57 0 0 0 0
0 39 0 30 0 0 0 49 0 0 0 21 0
0 0 0 0 0 0 0 0 0 0 0 18
0 0 0 43 0 0 46 0 35 0 0
0 0 0 0 0 0 0 0 80 0
0 0 0 78 0 0 0 67 0
0 0 0 0 39 0 0 0
0 19 72 0 42 67 0
0 0 0 0 0 0
0 70 0 0 0
0 0 0 0
0 0 18
0 0
0
0 0 0 0 75 0 52 0 35 0 44 0 73 0 56 0 0 0 0 74 0 0 0 0 0
0 0 0 73 0 83 0 0 0 0 0 0 0 0 0 0 0 0 0 87 11 0 0 0
0 0 0 0 0 0 17 0 0 0 0 0 0 0 0 0 0 0 0 0 0 0 0
0 0 0 1 28 0 97 48 0 0 0 64 0 0 99 0 0 0 0 0 0 0
0 0 0 0 0 0 0 0 0 0 0 0 0 0 0 0 0 0 0 0 0
0 0 0 51 16 49 0 0 0 0 0 0 0 0 0 0 0 0 0 0
0 0 0 0 0 0 57 70 0 69 12 54 0 0 0 0 0 0 0
0 0 28 0 0 0 25 0 0 0 31 0 0 0 0 0 82 79
0 0 12 0 0 0 0 0 0 52 30 0 54 0 0 0 0
0 0 0 0 0 0 30 0 0 0 0 66 0 0 0 98
0 0 0 0 0 0 16 0 74 0 0 0 0 0 82
0 0 0 11 0 0 0 0 96 0 39 0 0 0
0 27 75 82 0 26 0 100 0 0 0 0 0
0 0 0 0 0 5 82 0 0 26 0 0
0 0 53 67 0 0 88 37 0 0 95
0 0 51 0 39 0 0 0 0 0
0 32 56 0 0 0 0 0 0
0 0 0 0 0 0 81 0
0 0 0 0 90 0 0
0 0 0 16 0 84
0 71 0 83 0
0 0 0 0
0 77 0
0 0
0
0 0 0 0 63 0 6 0 0 0 3 0 4 0 0 61 0 0 0 0 91 12 26 2
0 7 0 0 0 0 0 0 0 0 0 0 0 0 0 0 0 0 0 0 67 0 34
0 0 22 74 0 0 0 0 0 0 0 18 0 0 0 0 0 63 0 0 59 0
0 0 0 89 12 0 0 0 83 0 0 0 0 72 62 87 0 0 0 0 0
0 0 0 0 0 0 0 0 0 99 0 0 47 0 23 0 0 0 0 0
0 0 19 0 0 0 0 0 6 0 0 0 0 0 0 0 0 0 39
0 0 93 0 0 43 0 0 0 0 0 0 32 0 0 89 0 0
0 0 0 0 11 0 58 0 0 0 65 0 94 0 0 0 0
0 0 0 79 51 0 25 0 0 17 0 0 0 0 0 0
0 92 0 17 78 0 0 0 0 0 0 0 0 0 0
0 0 0 0 0 0 0 0 0 1 0 67 0 0
0 0 0 0 0 0 0 0 0 71 21 78 0
0 0 0 50 0 0 0 0 0 0 23 0
0 0 0 0 99 0 96 64 0 71 0
0 57 0 0 9 54 9 0 96 0
0 0 33 0 42 91 0 0 0
0 13 0 0 45 70 64 0
0 71 87 99 77 0 0
0 0 91 0 59 85
0 0 0 0 0
0 0 0 6
0 0 0
0 0
0
0 0 0 0 0 0 0 0 0 0 92 0 0 100 0 0 0 0 0 0 0 0 0
0 52 0 0 0 0 0 0 0 0 65 51 0 0 0 80 0 0 87 0 0 0
0 0 0 0 24 0 11 0 0 0 83 44 0 0 0 0 0 0 0 0 0
0 0 0 44 0 0 0 0 0 72 0 0 0 0 0 0 0 0 0 77
0 0 47 27 0 92 6 0 0 0 0 0 48 0 0 0 0 0 88
0 0 0 0 81 0 0 0 0 0 0 22 74 0 76 0 0 0
0 0 0 60 0 0 0 0 0 0 0 0 0 0 0 33 0
0 0 0 0 84 49 0 33 0 55 95 0 0 0 0 85
0 63 0 0 0 0 0 0 0 13 0 0 0 0 40
0 35 54 0 0 0 58 0 93 0 6 0 0 0
0 0 0 0 0 8 0 0 0 0 0 37 0
0 0 0 0 91 0 0 0 0 0 4 0
0 72 0 0 77 0 72 63 0 0 43
0 45 0 0 41 0 62 0 62 0
0 0 9 1 0 0 99 0 0
0 0 0 0 0 24 19 0
0 45 0 0 54 18 0
0 0 92 0 20 0
0 0 0 87 0
0 0 0 0
0 0 0
0 0
0
0 39 0 0 0 0 0 0 0 0 73 83 0 0 0 35 0 0 0 0 0 0
0 0 0 75 0 0 0 98 0 0 0 0 74 0 88 0 0 0 0 0 49
0 0 15 0 0 37 0 0 13 0 0 78 0 0 0 16 0 0 26 0
0 0 0 0 0 62 0 87 0 92 0 0 95 0 25 0 0 32 0
0 0 0 0 0 70 0 0 0 0 97 0 0 0 86 64 0 0
0 0 10 17 0 0 39 0 0 0 0 91 0 12 21 0 31
0 88 0 0 2 0 47 0 0 0 0 0 96 0 0 0
0 0 57 49 0 0 0 80 0 0 0 0 0 0 0
0 4 0 0 0 0 63 0 0 0 0 0 18 0
0 0 0 0 0 0 0 64 0 31 0 0 0
0 0 3 0 6 0 48 0 0 0 54 0
0 56 0 96 0 0 0 41 90 0 0
0 0 0 0 0 0 64 2 79 0
0 0 0 0 0 0 0 0 33
0 0 0 0 0 21 0 0
0 0 0 0 0 0 0
0 33 0 30 0 0
0 0 6 0 0
0 0 0 45
0 0 0
0 71
0
0 0 0 0 0 0 75 60 0 0 0 0 0 0 0 0 19 0 0 0 0
0 0 59 0 0 90 22 0 0 0 95 0 0 0 17 85 0 0 0 52
0 0 0 0 0 19 0 7 0 0 52 0 0 0 61 0 11 33 0
0 0 0 0 0 0 0 0 0 8 0 0 49 0 0 0 0 0
0 31 5 0 20 0 0 0 87 43 0 43 0 0 0 0 0
0 0 0 0 2 0 0 0 0 94 72 0 0 0 0 74
0 0 0 0 48 0 0 0 0 0 10 52 0 0 65
0 0 0 40 0 0 0 0 94 72 0 0 0 0
0 0 0 0 0 0 0 0 0 0 0 0 0
0 0 0 0 0 82 38 0 0 0 0 0
0 0 0 0 0 0 0 0 0 52 0
0 13 0 3 26 0 0 60 2 0
0 0 0 17 0 0 37 0 0
0 0 0 0 0 71 18 0
0 0 74 60 0 0 22
0 0 0 40 0 0
0 0 0 47 0
0 0 0 0
0 0 0
0 0
0
0 0 0 99 46 14 0 0 0 84 0 0 29 0 0 0 0 0 0 0
0 0 13 0 0 0 0 0 12 17 0 0 0 0 72 0 0 0 35
0 0 41 0 0 0 17 0 0 1 2 0 77 0 0 42 0 73
0 0 0 4 0 0 40 14 89 0 0 0 0 0 61 0 0
0 44 0 40 0 46 0 0 0 0 76 18 0 0 0 0
0 0 0 0 0 27 0 0 50 0 46 0 0 0 0
0 0 82 31 0 0 0 0 0 93 0 15 0 0
0 0 0 0 0 0 0 0 0 0 0 66 0
0 0 0 16 43 0 0 0 0 25 0 0
0 0 0 0 0 3 0 0 0 19 0
0 0 0 0 0 0 0 0 0 0
0 0 0 0 0 0 0 41 0
0 0 73 77 0 39 0 0
0 0 0 27 0 9 0
0 0 30 0 0 0
0 0 28 29 15
0 71 0 0
0 0 0
0 0
0
0 0 17 0 0 0 0 0 75 0 0 27 0 0 0 0 0 0 16
0 0 0 53 0 0 0 0 0 0 0 0 48 0 45 0 0 71
0 0 0 58 0 38 0 0 0 0 0 0 0 0 0 33 0
0 73 0 0 0 0 71 0 0 64 0 60 84 0 0 0
0 0 0 0 0 0 46 67 0 7 0 0 0 0 0
0 0 61 0 0 77 0 0 0 0 0 92 0 0
0 0 0 0 0 0 0 35 44 0 0 0 0
0 0 0 0 0 0 0 0 10 0 79 0
0 0 77 59 0 0 0 99 0 0 44
0 0 50 0 40 0 0 0 43 0
0 57 0 0 0 0 0 0 76
0 54 58 28 17 0 0 0
0 0 43 0 0 0 0
0 0 10 24 0 0
0 0 0 80 0
0 0 14 0
0 0 30
0 26
0
0 91 0 0 0 0 0 0 0 0 0 0 46 0 24 0 0 0
0 0 0 0 0 0 0 0 0 0 0 8 0 0 28 0 16
0 35 0 33 0 19 0 0 0 0 46 0 0 0 0 0
0 70 48 0 0 0 0 0 0 92 23 92 0 0 49
0 0 0 26 0 0 0 0 0 0 98 0 78 0
0 73 0 0 4 0 0 0 0 0 0 0 0
0 0 0 0 79 0 0 86 0 0 0 4
0 0 0 0 0 0 0 0 41 0 0
0 0 0 0 94 0 0 0 0 66
0 0 0 0 40 0 0 0 8
0 0 0 0 0 6 67 0
0 91 0 0 0 0 47
0 0 0 38 0 0
0 0 0 0 0
0 0 24 0
0 0 0
0 64
0
0 0 0 0 96 0 0 0 0 0 0 0 0 0 0 0 0
0 0 0 55 0 0 92 68 22 0 18 0 0 0 0 0
0 59 0 0 0 0 0 9 94 0 0 0 0 0 0
0 0 0 44 67 0 0 0 79 85 0 0 0 0
0 74 62 0 0 0 0 0 0 0 0 0 0
0 0 77 1 0 0 35 0 0 0 0 0
0 0 0 0 0 0 0 0 45 0 0
0 0 0 0 0 47 20 0 15 0
0 0 37 0 0 0 94 95 0
0 0 0 0 21 61 54 0
0 0 0 0 0 0 0
0 0 0 0 0 0
0 0 0 0 70
0 0 0 18
0 0 0
0 0
0
0 0 0 0 0 25 0 0 0 0 52 10 0 0 0 50
0 0 0 0 0 0 0 0 0 3 62 0 0 0 0
0 0 0 0 0 79 0 0 0 0 0 68 0 0
0 0 0 45 0 0 0 0 0 0 0 44 19
0 0 73 71 0 36 2 0 0 0 0 0
0 0 37 0 0 0 67 0 2 0 0
0 0 17 47 0 0 0 0 0 0
0 0 52 0 0 0 0 0 43
0 0 75 15 63 0 0 13
0 0 27 0 0 0 93
0 28 0 0 55 0
0 0 24 0 0
0 0 0 0
0 0 6
0 72
0
0 0 0 78 69 0 0 0 0 68 0 0 0 0 0
0 30 59 0 38 0 42 82 28 0 0 0 0 0
0 0 20 11 0 0 5 0 0 72 0 36 0
0 0 0 0 65 0 0 0 0 0 0 0
0 0 0 82 0 91 0 0 0 85 0
0 0 0 0 91 51 0 0 43 0
0 0 0 0 0 7 0 0 0
0 60 0 0 33 0 0 92
0 0 0 0 56 0 16
0 0 0 0 0 38
0 86 41 0 54
0 0 0 77
0 76 0
0 0
0
0 89 24 3 0 0 56 0 6 45 43 0 0 0
0 0 0 0 0 0 0 0 0 9 0 84 69
0 0 82 75 0 2 0 0 0 0 0 57
0 0 0 0 0 33 0 0 0 22 0
0 0 0 0 0 100 0 0 0 0
0 4 0 0 46 5 0 0 0
0 0 0 0 0 0 0 0
0 0 40 3 0 0 25
0 0 21 0 0 0
0 3 0 0 0
0 0 0 11
0 0 0
0 0
0
0 0 15 56 0 0 4 54 0 0 56 0 12
0 0 11 0 0 13 0 83 0 46 97 0
0 0 0 58 0 0 0 57 0 0 0
0 0 0 0 0 0 0 0 0 0
0 0 0 88 0 8 0 0 43
0 0 0 0 0 0 42 60
0 0 0 0 0 0 0
0 0 0 0 0 22
0 0 0 0 0
0 31 0 0
0 0 26
0 20
0
0 0 0 0 0 0 0 0 0 41 0 0
0 0 0 0 0 0 49 0 0 0 0
0 0 55 0 0 0 0 0 44 0
0 95 0 94 97 98 71 48 0
0 0 30 0 0 0 0 0
0 0 23 38 0 0 39
0 80 0 0 0 0
0 38 0 0 0
0 88 0 0
0 0 0
0 85
0
0 77 0 0 25 36 0 0 0 0 0
0 10 49 0 0 1 38 0 0 0
0 25 0 0 19 0 9 0 0
0 75 0 32 0 22 92 0
0 0 0 59 0 0 0
0 0 10 58 81 0
0 0 0 0 0
0 0 0 0
0 13 0
0 0
0
0 64 9 0 0 15 0 0 7 0
0 26 33 64 42 0 0 0 0
0 0 0 86 0 2 14 0
0 0 19 0 0 0 0
0 0 61 0 0 0
0 29 4 0 0
0 0 88 95
0 0 0
0 0
0
0 0 0 0 0 0 0 41 0
0 0 0 0 0 47 43 0
0 0 0 0 61 0 0
0 0 38 0 0 0
0 0 0 0 0
0 49 0 0
0 0 0
0 96
0
0 0 10 47 0 0 34 6
0 0 0 87 0 0 0
0 0 91 0 0 0
0 0 0 25 0
0 74 90 0
0 0 0
0 0
0
0 0 0 0 59 0 0
0 0 0 0 0 0
0 0 0 0 0
0 0 0 22
0 0 0
0 0
0
0 0 0 80 0 0
0 0 0 0 67
0 0 0 0
0 0 0
0 0
0
0 0 0 88 0
0 0 0 92
0 16 0
0 0
0
0 0 0 0
0 0 0
0 0
0
0 18 0
0 0
0
0 0
0
0
5679 5904 6177 5253 6265 6013 5640 5180 5172 5011 5549 5671 5130 5180 6243 5609 5689 5317 4594 6427 5432 5458 5803 5283 7300 6173 6015 4708 5645 5520
230.709375 1118.1818181818182 784.3809523809524 459.6375 227.5184210526316 197.62553879310343 219.33333333333331 308.33333333333337 361.2190476190476 140.86394302848578 1017.3166666666666 203.57435897435897 355.32467532467535 2762.6666666666665 328.57894736842104 126.2025 348.1031468531469 193.34545454545457 2488.4166666666665 258.73590982286635 202.96195652173913 255.6900900900901 1673.9423076923076 716.9785714285714 406.7142857142857 555.2433862433862 302.2242647058823 335.11805555555554 175.07988721804512 124.43768996960486
